\ Model subproblem 2
\ LP format - for model browsing. Use MPS format to capture full model detail.
Maximize
  2.5 a[0] + 5 a[1] + 5 a[2] - 9 Constant
Subject To
 R0: 4 a[0] + 5 a[1] + 7 a[2] <= 14
Bounds
 Constant = 1
Generals
 a[0] a[1] a[2]
End
